unknown
(model
; cardinality of BoundSet is 5
(declare-sort BoundSet 0)
; rep: @uc_BoundSet_0
; rep: @uc_BoundSet_1
; rep: @uc_BoundSet_2
; rep: @uc_BoundSet_3
; rep: @uc_BoundSet_4
; cardinality of UnboundSet is 1
(declare-sort UnboundSet 0)
(declare-fun groundTerm_6 () UnboundSet)
(define-fun IsInBlack ((BOUND_VARIABLE_550 BoundSet)) Bool true)
(define-fun ReviewsMessage ((BOUND_VARIABLE_550 BoundSet)) Bool true)
(define-fun HasJob ((BOUND_VARIABLE_550 BoundSet)) Bool false)
)
sat
(model
; cardinality of BoundSet is 1
(declare-sort BoundSet 0)
; rep: @uc_BoundSet_0
; cardinality of UnboundSet is 1
(declare-sort UnboundSet 0)
(declare-fun groundTerm_11 () UnboundSet)
(define-fun IsInBlack ((BOUND_VARIABLE_553 BoundSet)) Bool true)
(define-fun ReviewsMessage ((BOUND_VARIABLE_553 BoundSet)) Bool true)
(define-fun HasJob ((BOUND_VARIABLE_553 BoundSet)) Bool false)
)
